p cnf 268 1652
17 -21 6 -5 -34 0
-32 25 -3 14 40 0
-7 46 47 43 -22 0
-27 33 -44 49 -15 0
3 -20 35 -37 10 0
28 -24 -9 -45 43 0
-2 -45 41 -35 47 0
-34 20 35 -38 47 0
27 17 -31 39 -22 0
26 -3 20 36 -2 0
43 -39 -33 -15 -49 0
37 40 -45 -28 39 0
3 10 6 31 26 0
25 -45 31 7 -12 0
7 -20 40 37 -9 0
-44 29 -33 39 -22 0
-24 17 44 -15 30 0
46 44 -33 1 -28 0
1 -37 -46 13 36 0
10 5 7 2 -40 0
3 -22 -25 -28 -8 0
-23 16 7 -15 25 0
10 -48 -27 -46 -39 0
27 2 -50 -42 -1 0
-38 -30 -29 -33 25 0
29 14 7 27 -44 0
13 -29 38 21 37 0
-22 8 -48 27 46 0
-3 4 -16 39 -43 0
-44 39 14 -8 -25 0
-34 -30 28 48 37 0
-48 22 -35 -39 -14 0
32 -35 19 -11 42 0
-11 31 -50 -19 16 0
36 44 32 26 46 0
-34 9 46 -17 47 0
7 50 -40 35 18 0
46 -12 28 24 -40 0
-48 49 4 -1 -38 0
16 36 46 38 -7 0
-8 5 -50 28 34 0
-10 -17 5 19 -18 0
-12 -17 -16 -25 -23 0
19 -36 -26 -22 -9 0
16 14 46 -17 29 0
-28 -4 -8 -23 -34 0
27 -43 -40 2 21 0
10 -18 11 -33 -28 0
-15 6 -50 28 12 0
20 2 -40 -38 -30 0
-45 24 -7 -8 34 0
46 -29 48 -24 13 0
-45 -27 -3 8 1 0
-48 19 40 50 -34 0
22 -46 -5 3 -42 0
-34 -35 43 -8 -23 0
-14 -46 -38 -22 34 0
-29 -42 10 -16 -44 0
-34 48 35 -46 -16 0
31 2 -46 3 4 0
21 24 45 25 -8 0
34 -15 29 -5 -23 0
7 33 47 4 9 0
-41 29 -40 23 -1 0
11 -25 -48 -28 -22 0
36 -10 25 46 15 0
8 12 10 43 3 0
6 31 18 -35 -38 0
-1 48 11 28 -42 0
45 -35 -26 7 -33 0
13 47 7 -39 -6 0
-13 -21 16 -7 29 0
-15 -41 3 49 25 0
20 -6 -10 4 -34 0
40 38 -39 -28 30 0
20 -46 34 -27 -6 0
-37 45 7 5 24 0
34 43 -49 -14 11 0
20 27 -5 48 -42 0
22 28 3 26 -33 0
6 16 -28 33 -36 0
-1 24 -9 -27 38 0
9 -31 -46 50 48 0
-25 46 -19 -12 -31 0
1 -18 -15 39 27 0
6 -28 23 16 3 0
-10 -27 14 -31 -33 0
30 39 -7 28 -31 0
25 13 -35 27 21 0
-21 15 30 35 -10 0
-11 -18 -40 -4 -41 0
11 -5 21 20 -48 0
16 -17 -33 7 -35 0
30 -14 -22 -13 -31 0
5 32 42 -28 -6 0
-43 42 25 -23 -17 0
43 27 -28 21 -7 0
50 -27 1 18 -44 0
22 -47 4 32 5 0
-32 -45 50 -9 25 0
37 -8 -28 -7 -13 0
29 39 -36 -26 -1 0
-24 -49 -32 45 -23 0
-5 -21 8 -47 -20 0
18 25 7 -2 17 0
-4 -22 47 -42 -31 0
-40 33 50 -13 -27 0
33 3 -19 22 21 0
-6 22 -31 21 -32 0
-29 -26 14 19 -30 0
-26 -21 -41 44 28 0
2 21 40 11 14 0
7 -4 -27 9 -26 0
36 5 32 -21 -16 0
-19 -15 34 -12 3 0
15 -2 -42 -31 18 0
-12 -47 -39 -4 -31 0
-45 25 -33 43 -2 0
-32 -21 16 7 -11 0
25 46 41 -21 -24 0
41 -7 -30 -14 -9 0
-14 -43 -18 -49 -47 0
-12 -11 -1 50 -4 0
38 -1 -39 -36 42 0
34 -1 17 48 -22 0
-38 44 15 19 9 0
-10 -14 48 13 7 0
-35 37 -21 -14 22 0
10 -45 -50 -47 44 0
-20 30 -26 39 -2 0
40 -11 -8 -32 47 0
-50 49 -19 -15 -28 0
36 -2 -49 18 -11 0
17 42 -4 -31 24 0
18 -8 5 -19 -3 0
37 -13 -27 -9 14 0
34 -20 44 -23 -18 0
-33 39 7 11 47 0
1 6 -23 36 38 0
-23 22 43 13 33 0
21 49 11 16 31 0
45 23 16 -36 -25 0
43 -3 30 -27 -47 0
-1 17 24 -12 -34 0
-10 -49 48 34 33 0
7 32 -49 9 16 0
22 -9 -31 7 -48 0
-22 47 -32 6 -13 0
28 48 45 42 33 0
28 -29 45 49 -38 0
-47 24 31 26 -36 0
-3 25 37 -42 9 0
-40 -23 -17 45 42 0
33 11 -45 -35 -1 0
7 -27 23 -19 39 0
44 -11 9 -10 46 0
-44 -22 -35 31 -43 0
-33 4 -45 -8 48 0
-18 7 -28 -43 30 0
22 34 15 4 33 0
-29 -28 39 -6 46 0
27 -39 43 -20 -31 0
21 -33 18 6 39 0
-20 -42 -1 -47 -31 0
-26 34 -10 33 48 0
28 -18 -40 43 6 0
-17 -14 -34 -16 29 0
32 -26 -48 50 49 0
49 -7 -13 -38 -27 0
45 -42 47 48 -41 0
7 38 -18 -33 -22 0
-24 47 27 12 11 0
3 28 23 1 25 0
-41 -31 -36 18 23 0
46 -21 -41 -34 30 0
10 40 -37 -48 20 0
-38 9 -13 -28 -20 0
-15 -45 -12 27 43 0
39 43 46 12 -28 0
34 -46 -7 -47 -10 0
-50 27 -41 49 -32 0
1 -14 -25 -5 -9 0
25 -43 19 15 -18 0
-42 -27 -16 3 46 0
1 18 15 49 -24 0
29 46 -34 32 -26 0
-7 14 21 38 -29 0
-38 -22 1 6 17 0
-32 20 23 48 -43 0
33 -42 31 32 11 0
31 -11 -46 45 16 0
-12 23 -34 -33 3 0
40 -3 -45 29 9 0
-49 -47 -35 -20 12 0
-34 -32 3 44 -29 0
-38 37 12 -19 -42 0
-45 -24 -36 43 -19 0
23 38 -50 31 36 0
-14 -9 41 29 -34 0
47 21 -18 -26 34 0
-34 -13 -24 46 -14 0
-6 11 28 38 7 0
6 -44 8 -25 19 0
44 -19 -34 47 -11 0
-24 2 29 -43 1 0
50 48 3 -14 47 0
-15 8 -14 46 -27 0
-9 2 22 33 -15 0
46 8 49 -37 -43 0
-7 37 29 -31 36 0
35 50 -12 -49 4 0
9 -24 31 -8 -15 0
-36 21 34 15 -33 0
14 -3 16 2 17 0
27 -38 -32 1 -30 0
11 41 24 21 -47 0
-5 -32 -37 12 21 0
-21 41 -19 14 32 0
-27 4 -2 -38 26 0
1 -20 21 -30 10 0
6 44 28 -20 24 0
-3 15 17 -21 24 0
-3 -33 -20 6 47 0
-28 10 -19 -21 -12 0
-35 36 -47 -11 -26 0
44 -39 12 -25 8 0
28 -19 17 -22 18 0
14 -9 11 -49 21 0
48 -14 -40 -2 13 0
-44 15 8 2 -46 0
-20 -13 -46 44 31 0
20 14 32 -17 -41 0
46 37 19 42 30 0
45 2 -22 -25 -30 0
27 35 -8 18 -46 0
-40 47 -23 -46 28 0
42 38 -46 27 36 0
14 35 -30 4 28 0
-38 -2 25 24 -13 0
-46 -45 25 -20 -33 0
-50 -2 32 -29 1 0
-37 -4 35 32 -19 0
-31 -4 48 -8 28 0
-2 18 -33 -1 24 0
40 42 -44 25 -24 0
-29 47 -24 17 36 0
-30 -3 -5 -1 33 0
32 17 47 16 19 0
-22 -14 17 -48 -3 0
14 -49 -2 -9 -4 0
20 -44 -16 18 2 0
18 44 14 20 -7 0
9 39 6 -14 42 0
2 -18 36 -37 -46 0
36 2 42 -10 -41 0
-17 2 -6 -33 -13 0
-31 13 -49 -36 -46 0
-26 25 34 44 9 0
18 -45 2 -47 7 0
-43 -15 2 48 -14 0
14 5 -47 -17 20 0
23 22 -39 34 2 0
-18 16 -29 40 -32 0
26 -38 -5 37 -8 0
-13 11 15 -38 -4 0
7 42 35 20 31 0
8 33 -42 -28 -12 0
15 -5 -3 -46 50 0
24 -25 -22 39 -3 0
28 16 5 -13 -43 0
-47 -25 -24 44 -9 0
-35 -18 -32 16 -47 0
11 49 40 8 9 0
-27 39 29 -31 -24 0
-34 -50 21 7 -25 0
-30 1 2 -50 -24 0
33 -34 -2 10 14 0
-33 -35 -12 -37 6 0
49 -50 38 16 -14 0
-13 14 34 16 33 0
40 34 -22 -15 25 0
-36 -19 -39 7 -29 0
23 15 33 -34 -31 0
-23 29 -1 -31 37 0
-48 -5 4 -28 -11 0
-46 1 31 -40 -25 0
-12 -46 -15 34 -40 0
-39 28 5 -8 -42 0
21 -30 1 -19 -15 0
37 22 7 48 10 0
32 37 26 -46 4 0
25 -47 -45 -20 -3 0
-1 33 -50 18 -23 0
-15 -29 49 -36 20 0
-43 30 -37 -35 -19 0
41 -20 49 -14 -28 0
16 -39 42 -20 29 0
-31 -25 -29 -40 -14 0
40 50 49 -36 34 0
6 -7 25 48 29 0
14 25 -8 -26 -45 0
26 11 -30 -22 -16 0
13 -41 -32 37 -20 0
-44 -17 46 -40 -27 0
-19 -11 6 -44 -3 0
-46 -47 5 34 7 0
10 20 37 34 -7 0
-35 2 -38 -6 -31 0
48 11 19 24 -4 0
-16 27 26 23 22 0
-1 -22 -41 31 -4 0
18 38 34 -46 3 0
30 42 -36 38 19 0
18 15 -35 44 48 0
15 22 -11 16 -33 0
-42 -14 -41 47 -36 0
33 -49 -43 -36 -15 0
45 -29 -22 -30 -34 0
46 11 13 12 -44 0
-24 -5 -33 20 10 0
23 9 14 17 20 0
-12 -5 -40 -30 -33 0
37 3 -4 -16 -44 0
-7 30 34 -21 48 0
-44 32 -36 -22 40 0
-34 18 5 -43 35 0
-43 6 -11 8 34 0
47 44 16 -27 11 0
-35 -31 -8 -30 -22 0
-9 28 -2 41 43 0
18 2 -42 -28 11 0
-26 -2 -25 -44 47 0
-6 1 -34 -4 -18 0
-40 7 -24 -41 -15 0
-39 -19 -44 5 -49 0
47 -27 -22 -29 -40 0
-10 48 2 -36 -31 0
37 -48 20 -18 -3 0
36 12 41 -35 -44 0
-28 3 -26 -5 -34 0
-45 14 47 22 12 0
-28 -38 30 -9 -6 0
-18 10 40 31 -2 0
17 34 13 9 -18 0
-11 -3 24 49 -23 0
21 -37 17 -18 -43 0
-50 -20 23 43 -22 0
17 19 13 15 -29 0
32 -33 4 43 29 0
19 1 31 -50 -22 0
50 37 41 -13 -1 0
48 1 14 -47 45 0
-10 -17 -37 34 38 0
21 -45 -43 32 3 0
-42 -18 10 25 3 0
-16 45 11 -34 40 0
-6 36 -7 40 10 0
19 -18 -2 30 32 0
49 -34 -40 -13 28 0
-13 26 11 -15 -48 0
10 -38 22 44 24 0
44 29 46 -24 33 0
-23 -1 29 33 -13 0
-24 27 25 -40 -19 0
40 21 -11 10 -14 0
-31 5 -25 12 48 0
-15 26 -10 33 -45 0
13 34 16 -33 -22 0
44 34 -39 -29 -5 0
18 -49 10 6 -44 0
-31 -9 -43 22 29 0
15 -19 -44 3 -16 0
-38 -48 21 25 2 0
-30 40 46 -21 -38 0
29 -18 -11 -17 -47 0
11 38 -29 34 -25 0
18 34 -6 29 46 0
-42 -1 -40 -44 -43 0
34 18 36 -11 -23 0
29 17 1 -33 -32 0
-12 7 13 -20 25 0
-14 47 1 32 -45 0
25 47 -7 33 -24 0
2 26 -30 -38 29 0
41 -27 -10 29 -48 0
20 15 -18 10 29 0
-17 38 11 -46 23 0
41 -44 -46 32 -5 0
-33 -48 47 29 -5 0
3 19 30 21 -47 0
31 -33 -1 -20 -40 0
-38 35 -42 -5 -7 0
-41 -26 -44 -3 -42 0
-14 -32 47 38 23 0
-4 -39 19 40 49 0
20 -30 9 21 -8 0
49 -4 5 -9 -13 0
-24 -49 -27 -29 -5 0
25 -47 -48 -29 -7 0
45 10 11 -37 -15 0
-21 22 41 36 47 0
-10 -40 3 36 5 0
-42 -47 14 -41 -6 0
47 11 -29 -42 -27 0
32 -7 43 -47 49 0
3 -17 -28 -48 18 0
-37 -35 2 -4 10 0
27 4 -19 33 12 0
26 4 -16 31 -34 0
-12 33 -8 2 22 0
-10 -1 -18 -46 -38 0
-48 14 -37 -35 -34 0
-44 -30 -37 -33 40 0
34 3 -35 21 50 0
18 -40 20 22 32 0
-18 -2 50 13 -32 0
34 33 12 8 -50 0
-15 -49 -27 38 24 0
11 -18 45 31 -13 0
38 -33 -1 42 -41 0
-4 33 -30 23 -24 0
28 14 7 37 -6 0
35 38 -42 45 31 0
6 46 -36 21 42 0
-3 48 -38 -11 7 0
-49 -30 -50 20 29 0
-45 -3 19 -27 30 0
47 28 33 11 21 0
-1 -29 -10 44 -28 0
-3 -14 35 -47 -32 0
20 34 -27 38 -40 0
25 -26 42 -18 16 0
42 -16 -22 21 -8 0
4 -40 1 7 -32 0
27 20 -9 32 -46 0
34 -33 -19 13 -20 0
-21 -22 -47 26 -4 0
29 -33 20 -41 -45 0
-8 11 -24 -38 46 0
-46 -9 -35 -36 33 0
-28 10 -33 35 50 0
-36 50 -44 -17 7 0
-25 -6 47 -40 28 0
-50 8 -49 35 21 0
-12 -23 -2 47 -44 0
13 -46 25 -33 -1 0
21 48 9 -3 12 0
-11 5 -30 48 -34 0
1 -26 -43 10 -30 0
-50 -9 -37 46 -7 0
49 -41 46 12 -19 0
-46 2 15 45 -13 0
-47 41 -17 -31 40 0
-3 37 -15 -48 36 0
-47 -32 -10 -14 33 0
48 -31 -23 38 24 0
-28 46 32 -9 13 0
13 -39 -25 45 -1 0
-43 7 -15 -22 -48 0
14 -26 43 -34 -30 0
-31 32 -43 -18 -3 0
23 -41 -46 18 35 0
-35 -11 31 38 27 0
-45 -7 -5 12 30 0
-16 4 -22 40 7 0
6 -30 -29 16 3 0
43 38 -10 45 -5 0
-17 24 -21 -13 8 0
-1 -9 2 29 -47 0
3 -11 47 50 25 0
27 3 -18 -4 43 0
-19 -47 -16 -17 -36 0
3 2 43 16 -45 0
29 -2 -15 -33 -11 0
-31 -39 -26 23 18 0
20 -4 -24 -16 -26 0
-11 16 -14 -18 34 0
44 -33 -16 5 -24 0
-45 3 11 -43 6 0
-42 -32 -9 1 -24 0
42 10 15 3 19 0
23 -45 -48 -10 -9 0
13 37 -12 19 35 0
-46 21 42 -9 -44 0
-42 21 -46 12 -5 0
43 34 40 18 -8 0
33 -5 -42 -2 -1 0
-32 -45 -23 -43 -16 0
-44 25 -18 -1 35 0
47 28 -33 20 -3 0
27 -45 -36 -15 12 0
47 -39 -7 45 -38 0
17 -32 -27 40 28 0
49 -36 -45 -19 6 0
35 50 23 2 -8 0
9 -8 38 -17 1 0
14 -8 -37 41 -33 0
-3 6 -45 -38 -43 0
-25 48 50 -13 26 0
-14 49 -27 36 45 0
-50 -25 16 -42 15 0
19 -20 17 -32 -29 0
10 50 -30 -44 -48 0
-21 10 -19 -36 -6 0
-18 -41 -25 -3 6 0
3 -25 -45 -31 -23 0
13 -5 4 18 -2 0
-45 38 -39 23 -26 0
48 30 27 -7 14 0
37 -10 -29 -33 44 0
8 35 -31 41 21 0
-9 -20 38 -31 46 0
-24 -7 34 50 -15 0
40 -32 7 -3 -20 0
-1 42 27 -25 -4 0
8 13 28 41 18 0
45 -27 46 30 -16 0
22 6 -19 -14 -49 0
11 35 32 9 -2 0
33 -34 2 -4 3 0
18 50 48 -2 46 0
-36 44 24 7 -21 0
-36 -23 27 13 45 0
5 -18 22 17 -37 0
-6 15 -46 23 49 0
24 -28 22 9 -25 0
42 38 33 48 -21 0
-22 27 -4 -10 19 0
-21 -14 5 43 -45 0
50 33 9 23 -44 0
37 -39 -22 36 4 0
-49 -22 -50 39 -3 0
45 50 -39 48 40 0
39 -16 47 18 -25 0
41 -20 -16 -34 7 0
-45 -33 -42 12 11 0
-30 2 -34 45 36 0
21 -32 33 47 4 0
-48 -16 1 -34 -35 0
39 -31 -10 40 -28 0
37 -11 47 -43 27 0
47 40 -4 16 32 0
24 36 31 -27 17 0
27 -41 -31 -19 -18 0
-6 49 -37 -14 38 0
21 22 14 -40 3 0
17 -1 -26 31 -36 0
14 21 29 9 33 0
-27 14 23 6 -24 0
-35 -1 18 -14 -43 0
-47 29 17 16 46 0
16 -31 -36 26 1 0
35 -13 26 27 -50 0
-17 31 48 26 1 0
-24 -36 21 -16 22 0
43 4 49 1 -23 0
44 41 -28 -5 42 0
2 -27 -28 46 -11 0
-41 -47 12 3 -4 0
49 25 -48 42 46 0
-26 -11 45 23 13 0
-47 16 39 -6 -9 0
20 -40 5 39 49 0
-31 -48 46 21 7 0
32 22 48 40 -43 0
-46 -16 48 -21 -35 0
-20 13 -28 -37 -10 0
31 -24 -6 27 -38 0
16 -29 28 24 -17 0
-13 44 -46 -49 -6 0
-18 43 27 -49 13 0
-3 -21 -42 -9 45 0
-12 -17 -23 49 -37 0
-18 -4 26 49 -32 0
6 32 2 8 34 0
-35 8 -2 12 -22 0
-44 45 6 15 41 0
34 8 6 5 -15 0
27 21 -37 39 -22 0
29 -50 -49 -36 4 0
2 -9 -25 -8 -20 0
23 42 -32 -30 22 0
32 4 11 37 -14 0
-7 16 -39 35 28 0
-16 3 25 36 -27 0
23 -5 -40 -15 29 0
-36 34 28 24 11 0
14 39 21 44 42 0
7 -49 -26 -12 -39 0
31 -49 -4 26 -16 0
-24 -26 49 -31 -45 0
-38 26 -39 17 -50 0
3 -14 -9 25 -19 0
-9 35 42 -50 37 0
18 15 28 -39 1 0
4 44 -37 -32 19 0
-19 7 50 23 13 0
-13 45 30 -38 48 0
4 25 10 41 -43 0
13 4 -38 19 -29 0
20 -9 -43 -28 8 0
-12 3 -10 -4 -26 0
11 -10 -19 -46 39 0
14 34 19 -12 -42 0
39 12 -38 -20 -37 0
25 21 -18 -32 -48 0
-16 42 -38 10 39 0
4 21 38 -1 -39 0
-7 35 36 -20 -15 0
48 -8 36 31 33 0
26 -2 36 -17 -24 0
-26 3 -39 28 11 0
14 -12 -7 18 -24 0
-46 -12 -32 30 9 0
24 -14 16 -34 -27 0
-21 40 9 42 -36 0
34 2 -19 -28 -31 0
-8 -5 3 47 49 0
50 -24 30 -23 3 0
48 37 31 -43 -12 0
4 -13 -5 -17 49 0
-26 41 11 47 -1 0
50 11 -48 -46 -4 0
22 -1 -26 -40 -12 0
-43 -40 -28 -6 -9 0
22 -20 -7 6 14 0
39 -16 -12 21 36 0
35 -13 5 43 9 0
-9 -43 34 33 27 0
34 -4 -47 41 -38 0
-16 15 -32 29 -34 0
-40 32 35 43 -18 0
-43 25 -50 41 36 0
-12 -14 24 -7 -28 0
-6 23 1 -40 -11 0
-25 6 37 -16 -29 0
-3 -19 40 -32 -28 0
18 -7 1 33 -47 0
-47 32 -37 -13 42 0
-16 -23 -41 -45 9 0
38 20 -34 40 37 0
30 49 -33 41 -44 0
39 15 12 34 -32 0
-32 -21 6 -8 -37 0
31 15 -5 -40 -16 0
45 -31 34 -50 -36 0
50 32 4 27 -22 0
31 -6 -27 -41 45 0
7 -15 -11 -43 32 0
40 -29 36 35 -43 0
-49 46 16 11 -14 0
33 49 -45 41 11 0
-34 5 18 -41 12 0
-9 48 37 32 46 0
26 46 18 36 47 0
-27 50 17 -49 -31 0
16 -2 12 22 3 0
-5 -6 -4 48 41 0
-2 -13 -8 27 40 0
-26 49 -35 -24 37 0
41 -11 -23 43 21 0
14 -8 7 40 32 0
-21 -33 44 35 -29 0
-10 7 43 31 39 0
-38 44 29 46 -5 0
-16 -50 -15 41 25 0
-12 -40 -45 -25 15 0
32 48 45 29 -30 0
25 18 47 -14 34 0
39 -12 -33 -8 49 0
27 -40 46 17 -35 0
13 -45 33 32 -17 0
-10 11 33 -36 13 0
42 -18 30 -8 -20 0
35 -25 37 48 45 0
3 -41 6 -28 -26 0
-15 17 44 -31 -28 0
-23 17 42 3 -21 0
35 14 -2 -10 42 0
21 18 -14 1 10 0
-12 -32 50 -29 10 0
-5 35 12 21 -6 0
-41 -11 16 -21 26 0
-1 20 -32 -50 26 0
23 -39 -21 -46 17 0
28 -16 -45 38 18 0
-36 -24 -21 -41 23 0
-15 -21 36 -27 4 0
23 -26 27 -49 -31 0
-15 50 2 -41 -40 0
24 48 14 22 -2 0
-28 -24 -23 -1 34 0
-36 42 10 50 43 0
11 4 -12 -30 48 0
26 32 2 46 -30 0
20 -41 -40 10 -38 0
1 -23 4 -21 -29 0
34 -46 -33 7 -41 0
-14 7 -32 -42 -10 0
48 -28 34 13 -32 0
-30 43 -17 4 15 0
48 15 -3 -5 -2 0
-30 20 -23 2 35 0
-43 11 22 46 -44 0
-23 25 32 28 16 0
-44 -49 33 38 -45 0
-48 28 10 -22 13 0
20 -28 -19 34 33 0
42 -22 -2 38 -37 0
21 -25 -42 -15 -17 0
22 17 -5 -24 -10 0
-18 4 -27 -30 -31 0
-46 -35 47 -23 28 0
39 -6 -7 34 -37 0
26 -38 -42 -20 46 0
21 -43 10 -46 37 0
7 37 5 20 -43 0
-49 26 -50 8 -27 0
17 4 -18 -38 -36 0
-50 25 14 40 -10 0
23 26 50 -32 44 0
13 -3 -39 -16 47 0
47 -21 48 -43 -29 0
-37 44 7 27 -43 0
-49 30 -10 -13 34 0
-5 12 2 -26 31 0
-40 -23 -13 34 -24 0
-16 21 40 38 7 0
6 -37 17 47 -20 0
5 -25 6 22 14 0
-41 26 20 -17 -37 0
17 23 -31 12 -40 0
-27 -10 45 32 43 0
34 -46 -47 -1 38 0
-50 -27 3 -32 -14 0
45 2 21 41 16 0
-23 -44 -39 -20 42 0
28 -48 -12 11 45 0
-38 -32 8 12 28 0
40 6 -35 -12 20 0
39 6 -47 -25 -20 0
-50 -36 28 44 -30 0
-12 -17 4 7 2 0
21 10 -44 -22 -37 0
39 32 -40 -41 -37 0
-6 16 -44 -32 -9 0
-43 30 -3 -24 -44 0
-39 -33 -37 22 -41 0
36 38 -48 -3 4 0
-47 -22 13 -27 -29 0
1 3 51 0
-1 3 -51 0
1 -3 -51 0
-1 -3 51 0
4 7 52 0
-4 7 -52 0
4 -7 -52 0
-4 -7 52 0
-10 13 53 0
10 13 -53 0
-10 -13 -53 0
10 -13 53 0
-15 18 54 0
15 18 -54 0
-15 -18 -54 0
15 -18 54 0
-21 25 55 0
21 25 -55 0
-21 -25 -55 0
21 -25 55 0
26 -27 56 0
-26 -27 -56 0
26 27 -56 0
-26 27 56 0
31 34 57 0
-31 34 -57 0
31 -34 -57 0
-31 -34 57 0
-35 41 58 0
35 41 -58 0
-35 -41 -58 0
35 -41 58 0
42 44 59 0
-42 44 -59 0
42 -44 -59 0
-42 -44 59 0
-45 -47 60 0
45 -47 -60 0
-45 47 -60 0
45 47 60 0
-48 -50 61 0
48 -50 -61 0
-48 50 -61 0
48 50 61 0
51 -52 62 0
-51 -52 -62 0
51 52 -62 0
-51 52 62 0
53 -54 63 0
-53 -54 -63 0
53 54 -63 0
-53 54 63 0
55 -56 64 0
-55 -56 -64 0
55 56 -64 0
-55 56 64 0
57 -58 65 0
-57 -58 -65 0
57 58 -65 0
-57 58 65 0
59 -60 66 0
-59 -60 -66 0
59 60 -66 0
-59 60 66 0
61 -62 67 0
-61 -62 -67 0
61 62 -67 0
-61 62 67 0
63 -64 68 0
-63 -64 -68 0
63 64 -68 0
-63 64 68 0
65 -66 69 0
-65 -66 -69 0
65 66 -69 0
-65 66 69 0
-67 -68 69 0
67 -68 -69 0
-67 68 -69 0
67 68 69 0
1 -4 70 0
-1 -4 -70 0
1 4 -70 0
-1 4 70 0
-6 7 71 0
6 7 -71 0
-6 -7 -71 0
6 -7 71 0
-11 -14 72 0
11 -14 -72 0
-11 14 -72 0
11 14 72 0
-17 -18 73 0
17 -18 -73 0
-17 18 -73 0
17 18 73 0
20 -21 74 0
-20 -21 -74 0
20 21 -74 0
-20 21 74 0
22 -24 75 0
-22 -24 -75 0
22 24 -75 0
-22 24 75 0
-26 -27 76 0
26 -27 -76 0
-26 27 -76 0
26 27 76 0
29 -32 77 0
-29 -32 -77 0
29 32 -77 0
-29 32 77 0
-33 -37 78 0
33 -37 -78 0
-33 37 -78 0
33 37 78 0
-41 44 79 0
41 44 -79 0
-41 -44 -79 0
41 -44 79 0
-45 47 80 0
45 47 -80 0
-45 -47 -80 0
45 -47 80 0
48 -49 81 0
-48 -49 -81 0
48 49 -81 0
-48 49 81 0
70 -71 82 0
-70 -71 -82 0
70 71 -82 0
-70 71 82 0
72 -73 83 0
-72 -73 -83 0
72 73 -83 0
-72 73 83 0
74 -75 84 0
-74 -75 -84 0
74 75 -84 0
-74 75 84 0
76 -77 85 0
-76 -77 -85 0
76 77 -85 0
-76 77 85 0
78 -79 86 0
-78 -79 -86 0
78 79 -86 0
-78 79 86 0
80 -81 87 0
-80 -81 -87 0
80 81 -87 0
-80 81 87 0
82 -83 88 0
-82 -83 -88 0
82 83 -88 0
-82 83 88 0
84 -85 89 0
-84 -85 -89 0
84 85 -89 0
-84 85 89 0
86 -87 90 0
-86 -87 -90 0
86 87 -90 0
-86 87 90 0
-88 -89 90 0
88 -89 -90 0
-88 89 -90 0
88 89 90 0
3 -5 91 0
-3 -5 -91 0
3 5 -91 0
-3 5 91 0
-9 -10 92 0
9 -10 -92 0
-9 10 -92 0
9 10 92 0
14 18 93 0
-14 18 -93 0
14 -18 -93 0
-14 -18 93 0
23 25 94 0
-23 25 -94 0
23 -25 -94 0
-23 -25 94 0
31 34 95 0
-31 34 -95 0
31 -34 -95 0
-31 -34 95 0
35 -36 96 0
-35 -36 -96 0
35 36 -96 0
-35 36 96 0
37 -38 97 0
-37 -38 -97 0
37 38 -97 0
-37 38 97 0
-39 -44 98 0
39 -44 -98 0
-39 44 -98 0
39 44 98 0
-45 -46 99 0
45 -46 -99 0
-45 46 -99 0
45 46 99 0
47 -49 100 0
-47 -49 -100 0
47 49 -100 0
-47 49 100 0
90 -91 101 0
-90 -91 -101 0
90 91 -101 0
-90 91 101 0
92 -93 102 0
-92 -93 -102 0
92 93 -102 0
-92 93 102 0
94 -95 103 0
-94 -95 -103 0
94 95 -103 0
-94 95 103 0
96 -97 104 0
-96 -97 -104 0
96 97 -104 0
-96 97 104 0
98 -99 105 0
-98 -99 -105 0
98 99 -105 0
-98 99 105 0
100 -101 106 0
-100 -101 -106 0
100 101 -106 0
-100 101 106 0
102 -103 107 0
-102 -103 -107 0
102 103 -107 0
-102 103 107 0
104 -105 108 0
-104 -105 -108 0
104 105 -108 0
-104 105 108 0
-106 -107 108 0
106 -107 -108 0
-106 107 -108 0
106 107 108 0
2 4 109 0
-2 4 -109 0
2 -4 -109 0
-2 -4 109 0
5 7 110 0
-5 7 -110 0
5 -7 -110 0
-5 -7 110 0
-8 -9 111 0
8 -9 -111 0
-8 9 -111 0
8 9 111 0
11 -14 112 0
-11 -14 -112 0
11 14 -112 0
-11 14 112 0
15 17 113 0
-15 17 -113 0
15 -17 -113 0
-15 -17 113 0
18 -20 114 0
-18 -20 -114 0
18 20 -114 0
-18 20 114 0
-21 -25 115 0
21 -25 -115 0
-21 25 -115 0
21 25 115 0
-26 -30 116 0
26 -30 -116 0
-26 30 -116 0
26 30 116 0
31 -32 117 0
-31 -32 -117 0
31 32 -117 0
-31 32 117 0
-33 -36 118 0
33 -36 -118 0
-33 36 -118 0
33 36 118 0
37 -38 119 0
-37 -38 -119 0
37 38 -119 0
-37 38 119 0
-39 42 120 0
39 42 -120 0
-39 -42 -120 0
39 -42 120 0
-44 45 121 0
44 45 -121 0
-44 -45 -121 0
44 -45 121 0
-46 -47 122 0
46 -47 -122 0
-46 47 -122 0
46 47 122 0
108 -109 123 0
-108 -109 -123 0
108 109 -123 0
-108 109 123 0
110 -111 124 0
-110 -111 -124 0
110 111 -124 0
-110 111 124 0
112 -113 125 0
-112 -113 -125 0
112 113 -125 0
-112 113 125 0
114 -115 126 0
-114 -115 -126 0
114 115 -126 0
-114 115 126 0
116 -117 127 0
-116 -117 -127 0
116 117 -127 0
-116 117 127 0
118 -119 128 0
-118 -119 -128 0
118 119 -128 0
-118 119 128 0
120 -121 129 0
-120 -121 -129 0
120 121 -129 0
-120 121 129 0
122 -123 130 0
-122 -123 -130 0
122 123 -130 0
-122 123 130 0
124 -125 131 0
-124 -125 -131 0
124 125 -131 0
-124 125 131 0
126 -127 132 0
-126 -127 -132 0
126 127 -132 0
-126 127 132 0
128 -129 133 0
-128 -129 -133 0
128 129 -133 0
-128 129 133 0
130 -131 134 0
-130 -131 -134 0
130 131 -134 0
-130 131 134 0
132 -133 135 0
-132 -133 -135 0
132 133 -135 0
-132 133 135 0
134 135 0
-134 -135 0
-2 -4 136 0
2 -4 -136 0
-2 4 -136 0
2 4 136 0
-5 -6 137 0
5 -6 -137 0
-5 6 -137 0
5 6 137 0
8 -11 138 0
-8 -11 -138 0
8 11 -138 0
-8 11 138 0
-15 -19 139 0
15 -19 -139 0
-15 19 -139 0
15 19 139 0
21 -25 140 0
-21 -25 -140 0
21 25 -140 0
-21 25 140 0
-26 -28 141 0
26 -28 -141 0
-26 28 -141 0
26 28 141 0
-30 31 142 0
30 31 -142 0
-30 -31 -142 0
30 -31 142 0
35 37 143 0
-35 37 -143 0
35 -37 -143 0
-35 -37 143 0
-39 40 144 0
39 40 -144 0
-39 -40 -144 0
39 -40 144 0
41 -42 145 0
-41 -42 -145 0
41 42 -145 0
-41 42 145 0
-43 -45 146 0
43 -45 -146 0
-43 45 -146 0
43 45 146 0
48 49 147 0
-48 49 -147 0
48 -49 -147 0
-48 -49 147 0
135 -136 148 0
-135 -136 -148 0
135 136 -148 0
-135 136 148 0
137 -138 149 0
-137 -138 -149 0
137 138 -149 0
-137 138 149 0
139 -140 150 0
-139 -140 -150 0
139 140 -150 0
-139 140 150 0
141 -142 151 0
-141 -142 -151 0
141 142 -151 0
-141 142 151 0
143 -144 152 0
-143 -144 -152 0
143 144 -152 0
-143 144 152 0
145 -146 153 0
-145 -146 -153 0
145 146 -153 0
-145 146 153 0
147 -148 154 0
-147 -148 -154 0
147 148 -154 0
-147 148 154 0
149 -150 155 0
-149 -150 -155 0
149 150 -155 0
-149 150 155 0
151 -152 156 0
-151 -152 -156 0
151 152 -156 0
-151 152 156 0
153 -154 157 0
-153 -154 -157 0
153 154 -157 0
-153 154 157 0
155 -156 158 0
-155 -156 -158 0
155 156 -158 0
-155 156 158 0
157 158 0
-157 -158 0
-1 -3 159 0
1 -3 -159 0
-1 3 -159 0
1 3 159 0
4 5 160 0
-4 5 -160 0
4 -5 -160 0
-4 -5 160 0
6 -8 161 0
-6 -8 -161 0
6 8 -161 0
-6 8 161 0
9 12 162 0
-9 12 -162 0
9 -12 -162 0
-9 -12 162 0
13 16 163 0
-13 16 -163 0
13 -16 -163 0
-13 -16 163 0
-18 -20 164 0
18 -20 -164 0
-18 20 -164 0
18 20 164 0
23 24 165 0
-23 24 -165 0
23 -24 -165 0
-23 -24 165 0
-25 -27 166 0
25 -27 -166 0
-25 27 -166 0
25 27 166 0
29 -30 167 0
-29 -30 -167 0
29 30 -167 0
-29 30 167 0
-31 33 168 0
31 33 -168 0
-31 -33 -168 0
31 -33 168 0
-34 35 169 0
34 35 -169 0
-34 -35 -169 0
34 -35 169 0
38 39 170 0
-38 39 -170 0
38 -39 -170 0
-38 -39 170 0
41 -42 171 0
-41 -42 -171 0
41 42 -171 0
-41 42 171 0
44 46 172 0
-44 46 -172 0
44 -46 -172 0
-44 -46 172 0
158 -159 173 0
-158 -159 -173 0
158 159 -173 0
-158 159 173 0
160 -161 174 0
-160 -161 -174 0
160 161 -174 0
-160 161 174 0
162 -163 175 0
-162 -163 -175 0
162 163 -175 0
-162 163 175 0
164 -165 176 0
-164 -165 -176 0
164 165 -176 0
-164 165 176 0
166 -167 177 0
-166 -167 -177 0
166 167 -177 0
-166 167 177 0
168 -169 178 0
-168 -169 -178 0
168 169 -178 0
-168 169 178 0
170 -171 179 0
-170 -171 -179 0
170 171 -179 0
-170 171 179 0
172 -173 180 0
-172 -173 -180 0
172 173 -180 0
-172 173 180 0
174 -175 181 0
-174 -175 -181 0
174 175 -181 0
-174 175 181 0
176 -177 182 0
-176 -177 -182 0
176 177 -182 0
-176 177 182 0
178 -179 183 0
-178 -179 -183 0
178 179 -183 0
-178 179 183 0
180 -181 184 0
-180 -181 -184 0
180 181 -184 0
-180 181 184 0
182 -183 185 0
-182 -183 -185 0
182 183 -185 0
-182 183 185 0
184 185 0
-184 -185 0
-2 6 186 0
2 6 -186 0
-2 -6 -186 0
2 -6 186 0
-7 11 187 0
7 11 -187 0
-7 -11 -187 0
7 -11 187 0
12 -14 188 0
-12 -14 -188 0
12 14 -188 0
-12 14 188 0
17 18 189 0
-17 18 -189 0
17 -18 -189 0
-17 -18 189 0
19 -20 190 0
-19 -20 -190 0
19 20 -190 0
-19 20 190 0
-22 -29 191 0
22 -29 -191 0
-22 29 -191 0
22 29 191 0
33 -42 192 0
-33 -42 -192 0
33 42 -192 0
-33 42 192 0
-44 -46 193 0
44 -46 -193 0
-44 46 -193 0
44 46 193 0
185 -186 194 0
-185 -186 -194 0
185 186 -194 0
-185 186 194 0
187 -188 195 0
-187 -188 -195 0
187 188 -195 0
-187 188 195 0
189 -190 196 0
-189 -190 -196 0
189 190 -196 0
-189 190 196 0
191 -192 197 0
-191 -192 -197 0
191 192 -197 0
-191 192 197 0
193 -194 198 0
-193 -194 -198 0
193 194 -198 0
-193 194 198 0
195 -196 199 0
-195 -196 -199 0
195 196 -199 0
-195 196 199 0
-197 -198 199 0
197 -198 -199 0
-197 198 -199 0
197 198 199 0
-1 -4 200 0
1 -4 -200 0
-1 4 -200 0
1 4 200 0
-6 -8 201 0
6 -8 -201 0
-6 8 -201 0
6 8 201 0
10 -13 202 0
-10 -13 -202 0
10 13 -202 0
-10 13 202 0
-19 -20 203 0
19 -20 -203 0
-19 20 -203 0
19 20 203 0
-21 25 204 0
21 25 -204 0
-21 -25 -204 0
21 -25 204 0
-27 28 205 0
27 28 -205 0
-27 -28 -205 0
27 -28 205 0
-29 30 206 0
29 30 -206 0
-29 -30 -206 0
29 -30 206 0
-32 -33 207 0
32 -33 -207 0
-32 33 -207 0
32 33 207 0
34 35 208 0
-34 35 -208 0
34 -35 -208 0
-34 -35 208 0
38 -44 209 0
-38 -44 -209 0
38 44 -209 0
-38 44 209 0
46 47 210 0
-46 47 -210 0
46 -47 -210 0
-46 -47 210 0
-48 -49 211 0
48 -49 -211 0
-48 49 -211 0
48 49 211 0
199 -200 212 0
-199 -200 -212 0
199 200 -212 0
-199 200 212 0
201 -202 213 0
-201 -202 -213 0
201 202 -213 0
-201 202 213 0
203 -204 214 0
-203 -204 -214 0
203 204 -214 0
-203 204 214 0
205 -206 215 0
-205 -206 -215 0
205 206 -215 0
-205 206 215 0
207 -208 216 0
-207 -208 -216 0
207 208 -216 0
-207 208 216 0
209 -210 217 0
-209 -210 -217 0
209 210 -217 0
-209 210 217 0
211 -212 218 0
-211 -212 -218 0
211 212 -218 0
-211 212 218 0
213 -214 219 0
-213 -214 -219 0
213 214 -219 0
-213 214 219 0
215 -216 220 0
-215 -216 -220 0
215 216 -220 0
-215 216 220 0
217 -218 221 0
-217 -218 -221 0
217 218 -221 0
-217 218 221 0
219 -220 222 0
-219 -220 -222 0
219 220 -222 0
-219 220 222 0
221 222 0
-221 -222 0
1 2 223 0
-1 2 -223 0
1 -2 -223 0
-1 -2 223 0
-5 6 224 0
5 6 -224 0
-5 -6 -224 0
5 -6 224 0
-7 8 225 0
7 8 -225 0
-7 -8 -225 0
7 -8 225 0
-9 11 226 0
9 11 -226 0
-9 -11 -226 0
9 -11 226 0
13 15 227 0
-13 15 -227 0
13 -15 -227 0
-13 -15 227 0
16 -19 228 0
-16 -19 -228 0
16 19 -228 0
-16 19 228 0
-20 -21 229 0
20 -21 -229 0
-20 21 -229 0
20 21 229 0
-23 -24 230 0
23 -24 -230 0
-23 24 -230 0
23 24 230 0
-30 32 231 0
30 32 -231 0
-30 -32 -231 0
30 -32 231 0
33 36 232 0
-33 36 -232 0
33 -36 -232 0
-33 -36 232 0
-37 -38 233 0
37 -38 -233 0
-37 38 -233 0
37 38 233 0
-40 43 234 0
40 43 -234 0
-40 -43 -234 0
40 -43 234 0
45 -48 235 0
-45 -48 -235 0
45 48 -235 0
-45 48 235 0
222 -223 236 0
-222 -223 -236 0
222 223 -236 0
-222 223 236 0
224 -225 237 0
-224 -225 -237 0
224 225 -237 0
-224 225 237 0
226 -227 238 0
-226 -227 -238 0
226 227 -238 0
-226 227 238 0
228 -229 239 0
-228 -229 -239 0
228 229 -239 0
-228 229 239 0
230 -231 240 0
-230 -231 -240 0
230 231 -240 0
-230 231 240 0
232 -233 241 0
-232 -233 -241 0
232 233 -241 0
-232 233 241 0
234 -235 242 0
-234 -235 -242 0
234 235 -242 0
-234 235 242 0
236 -237 243 0
-236 -237 -243 0
236 237 -243 0
-236 237 243 0
238 -239 244 0
-238 -239 -244 0
238 239 -244 0
-238 239 244 0
240 -241 245 0
-240 -241 -245 0
240 241 -245 0
-240 241 245 0
242 -243 246 0
-242 -243 -246 0
242 243 -246 0
-242 243 246 0
244 -245 247 0
-244 -245 -247 0
244 245 -247 0
-244 245 247 0
246 247 0
-246 -247 0
-1 3 248 0
1 3 -248 0
-1 -3 -248 0
1 -3 248 0
7 8 249 0
-7 8 -249 0
7 -8 -249 0
-7 -8 249 0
9 -10 250 0
-9 -10 -250 0
9 10 -250 0
-9 10 250 0
11 12 251 0
-11 12 -251 0
11 -12 -251 0
-11 -12 251 0
16 17 252 0
-16 17 -252 0
16 -17 -252 0
-16 -17 252 0
-19 20 253 0
19 20 -253 0
-19 -20 -253 0
19 -20 253 0
21 25 254 0
-21 25 -254 0
21 -25 -254 0
-21 -25 254 0
-27 29 255 0
27 29 -255 0
-27 -29 -255 0
27 -29 255 0
30 31 256 0
-30 31 -256 0
30 -31 -256 0
-30 -31 256 0
-32 35 257 0
32 35 -257 0
-32 -35 -257 0
32 -35 257 0
39 -40 258 0
-39 -40 -258 0
39 40 -258 0
-39 40 258 0
-41 -44 259 0
41 -44 -259 0
-41 44 -259 0
41 44 259 0
248 -249 260 0
-248 -249 -260 0
248 249 -260 0
-248 249 260 0
250 -251 261 0
-250 -251 -261 0
250 251 -261 0
-250 251 261 0
252 -253 262 0
-252 -253 -262 0
252 253 -262 0
-252 253 262 0
254 -255 263 0
-254 -255 -263 0
254 255 -263 0
-254 255 263 0
256 -257 264 0
-256 -257 -264 0
256 257 -264 0
-256 257 264 0
258 -259 265 0
-258 -259 -265 0
258 259 -265 0
-258 259 265 0
260 -261 266 0
-260 -261 -266 0
260 261 -266 0
-260 261 266 0
262 -263 267 0
-262 -263 -267 0
262 263 -267 0
-262 263 267 0
264 -265 268 0
-264 -265 -268 0
264 265 -268 0
-264 265 268 0
-266 -267 268 0
266 -267 -268 0
-266 267 -268 0
266 267 268 0
